Name: Ing0607-2
Courses: 131
Rooms: 20
Days: 5
Periods_per_day: 5
Curricula: 77
Constraints: 667

COURSES:
c0007 t000 3 3 12
c0009 t001 3 3 16
c0015 t002 3 3 15
c0019 t003 3 3 31
c0020 t004 3 3 12
c0023 t005 3 3 111
c0024 t006 3 3 38
c0044 t007 3 3 110
c0047 t008 3 3 100
c0049 t009 3 3 55
c0053 t010 3 3 60
c0056 t011 3 3 110
c0058 t012 3 3 100
c0061 t013 3 3 55
c0062 t014 3 3 55
c0069 t010 3 3 110
c0072 t015 3 2 127
c0074 t016 3 1 13
c0088 t017 5 4 85
c0095 t018 3 3 90
c0103 t019 3 3 80
c0106 t020 3 3 147
c0108 t021 3 3 90
c0110 t012 3 3 160
c0113 t022 3 3 125
c0115 t023 3 3 136
c0118 t024 3 3 33
c0127 t025 3 3 90
c0129 t026 3 3 105
c0131 t027 3 2 105
c0132 t027 3 2 105
c0133 t028 5 1 100
c0152 t029 3 3 105
c0153 t030 3 2 105
c0162 t031 3 3 102
c0178 t032 3 3 90
c0191 t033 3 2 80
c0193 t034 3 3 106
c0195 t011 3 3 90
c0201 t035 3 2 105
c0203 t029 3 3 75
c0206 t036 3 3 90
c0211 t037 3 3 130
c0213 t038 3 3 130
c0217 t001 3 3 98
c0219 t039 3 3 83
c0221 t031 3 3 98
c0225 t040 3 3 83
c0230 t041 3 3 113
c0232 t042 3 3 50
c0238 t043 3 3 130
c0252 t044 3 3 120
c0253 t045 3 3 85
c0257 t046 3 3 157
c0279 t047 3 3 105
c0411 t048 3 3 57
c0412 t049 3 3 20
c0423 t048 3 3 40
c0428 t030 3 3 20
c0430 t041 3 3 68
c0432 t050 3 3 40
c0443 t051 3 3 20
c0444 t052 3 3 20
c0449 t045 3 3 20
c0455 t053 3 3 65
c0464 t054 3 2 65
c0467 t055 3 3 15
c0478 t030 3 2 53
c0479 t009 3 3 37
c0487 t056 3 3 38
c0489 t057 3 3 23
c0496 t058 3 3 31
c0497 t059 3 3 15
c0503 t060 3 3 31
c0504 t061 3 3 15
c0512 t062 3 3 69
c0515 t063 4 3 99
c0520 t020 3 3 112
c0526 t022 3 3 26
c0530 t062 3 3 28
c0532 t064 3 3 26
c0534 t065 3 3 15
c0535 t066 3 3 15
c0537 t067 3 3 15
c0538 t067 3 3 15
c0539 t068 3 3 15
c0554 t030 3 3 4
c0602 t069 3 3 41
c0722 t070 3 3 80
c0723 t071 3 3 10
c0725 t068 3 3 69
c0730 t008 3 3 8
c0737 t034 3 3 37
c0742 t072 3 3 35
c0746 t058 3 3 100
c0789 t073 3 3 12
c0794 t074 3 3 8
c0795 t073 3 3 23
c0804 t075 3 3 8
c0807 t076 3 3 8
c0808 t077 3 3 24
c0812 t078 3 3 17
c0813 t078 3 3 17
c0822 t079 3 3 4
c0835 t003 3 3 25
c0847 t080 3 3 60
c0849 t081 3 2 20
c0860 t039 7 2 10
c0862 t080 7 2 5
c0883 t082 7 2 10
c0897 t083 3 3 51
c1005 t084 3 2 67
c0932 t085 3 3 90
c0936 t070 3 3 41
c1022 t014 3 3 8
c0955 t086 7 2 40
c0963 t087 7 2 55
c0975 t088 7 2 15
c0980 t089 7 2 60
c0983 t090 7 2 50
c0998 t091 3 3 87
c1041 t092 3 3 160
c1053 t093 3 2 23
c1062 t094 3 3 40
c1064 t095 7 2 5
c1065 t029 3 3 20
c1066 t096 3 3 20
c1069 t059 3 3 20
c1072 t097 3 3 60
c1074 t098 3 3 20
c1077 t066 3 3 44

ROOMS:
25	40
36	42
37	42
38	48
34	50
27	65
51	78
B	216
D	216
F	216
G	216
A	312
L	336
50	75
52	60
DS1	100
DS2	60
N	30
Er1	70
Er2	70

CURRICULA:
q000  3 c0095 c0108 c0127 
q001  4 c0103 c0110 c0113 c0722 
q002  4 c0106 c0115 c0118 c0998 
q003  4 c0106 c0115 c0998 c1077 
q005  4 c0106 c0115 c0723 c0998 
q006  3 c0211 c0213 c0238 
q007  4 c0007 c0009 c0230 c0023 
q008  3 c0230 c0023 c0217 
q009  3 c0009 c0023 c0019 
q010  4 c0015 c0019 c0020 c0024 
q011  4 c0019 c0088 c0221 c0253 
q012  4 c0015 c0795 c0897 c0230 
q013  3 c0044 c0056 c0069 
q014  4 c0047 c0053 c0058 c0746 
q015  4 c0049 c0061 c0062 c0742 
q016  4 c0049 c0061 c0062 c0074 
q017  4 c0049 c0061 c0062 c1069 
q018  4 c0049 c0061 c0062 c0072 
q020  4 c0217 c0219 c0023 c0230 
q021  4 c0217 c0219 c0230 c0897 
q022  4 c0221 c0225 c0232 c0088 
q023  4 c0221 c0225 c0253 c0932 
q024  2 c0225 c0221 
q025  3 c0178 c0195 c0206 
q026  4 c0252 c0191 c0110 c0193 
q027  4 c0257 c0515 c0201 c0203 
q028  4 c0257 c0515 c0201 c0467 
q029  4 c0257 c0515 c0201 c0106 
q030  4 c0129 c0131 c0152 c0975 
q031  4 c0129 c0131 c0152 c0955 
q032  4 c0129 c0131 c0152 c0983 
q033  4 c0132 c0133 c0153 c0883 
q034  4 c0132 c0133 c0153 c0980 
q035  4 c0132 c0153 c0897 c0963 
q036  4 c0132 c0133 c0153 c0963 
q037  2 c0162 c1041 
q038  1 c0162 
q041  4 c0252 c0058 c0047 c0746 
q042  4 c0257 c0201 c0072 c0203 
q043  3 c0257 c0201 c0072 
q044  4 c0257 c0201 c0072 c0279 
q045  4 c0455 c0478 c0602 c0503 
q046  5 c0455 c0478 c0602 c0503 c0279 
q047  4 c0115 c0279 c0455 c0106 
q048  4 c0115 c0279 c0455 c0467 
q049  3 c0464 c0496 c0279 
q050  3 c0464 c0489 c0496 
q051  4 c0464 c0072 c0520 c0113 
q052  2 c0464 c0554 
q053  5 c0411 c0412 c0088 c0932 c1074 
q054  6 c0411 c0932 c0432 c0232 c0088 c0443 
q055  5 c0423 c0428 c0430 c0253 c0432 
q056  4 c0444 c0423 c0430 c0449 
q057  3 c0478 c0479 c0074 
q058  4 c0478 c0479 c0497 c1069 
q059  4 c0478 c0479 c0072 c0737 
q060  5 c0487 c0737 c0489 c0730 c1053 
q061  5 c0487 c0737 c0496 c1053 c0279 
q062  4 c0487 c0504 c0503 c0279 
q063  5 c0512 c0725 c0193 c0515 c0936 
q064  4 c0512 c0725 c0430 c0530 
q065  5 c0512 c0725 c0535 c0539 c0936 
q066  5 c0520 c1005 c0072 c0257 c0526 
q067  5 c0520 c1005 c0257 c0024 c0532 
q068  5 c0520 c1005 c0534 c0537 c0538 
q069  6 c0602 c0794 c0795 c0467 c0835 c1022 
q070  5 c0602 c0812 c0813 c0411 c0835 
q071  6 c0602 c0795 c0411 c0812 c0813 c0835 
q072  3 c0804 c0807 c0808 
q073  2 c0808 c0822 
q074  2 c0789 c0808 
q075  5 c0847 c0980 c0897 c1072 c1041 
q076  5 c0847 c1062 c0897 c1072 c1041 
q077  5 c0847 c1062 c1066 c1072 c1041 
q078  3 c0849 c0862 c1065 
q079  3 c0849 c0860 c1065 
q080  3 c0849 c1064 c1065 

UNAVAILABILITY_CONSTRAINTS:
c0007 0 0
c0007 0 4
c0007 1 0
c0007 1 4
c0007 2 0
c0007 2 4
c0007 3 0
c0007 4 0
c0015 0 0
c0015 0 2
c0015 1 0
c0015 1 2
c0015 2 0
c0015 2 2
c0015 3 2
c0015 4 2
c0019 0 0
c0019 0 1
c0019 0 2
c0019 0 3
c0019 0 4
c0019 1 0
c0019 2 0
c0019 3 0
c0020 0 0
c0020 0 1
c0020 1 0
c0020 2 0
c0020 3 0
c0020 4 0
c0020 4 2
c0020 4 3
c0020 4 4
c0023 0 0
c0023 0 1
c0023 0 2
c0023 0 3
c0023 0 4
c0023 1 0
c0023 1 1
c0023 1 2
c0023 4 2
c0023 4 3
c0023 4 4
c0024 0 0
c0024 0 1
c0024 0 2
c0024 1 0
c0024 2 0
c0024 3 0
c0024 4 0
c0024 4 4
c0044 0 0
c0044 0 1
c0044 3 4
c0044 4 0
c0044 4 1
c0044 4 2
c0044 4 3
c0044 4 4
c0047 0 0
c0047 0 1
c0047 0 2
c0047 0 3
c0047 0 4
c0047 4 2
c0047 4 3
c0047 4 4
c0049 0 0
c0049 0 1
c0049 0 2
c0049 4 0
c0049 4 1
c0049 4 2
c0049 4 3
c0049 4 4
c0053 1 2
c0053 1 3
c0053 1 4
c0053 4 0
c0053 4 1
c0053 4 2
c0053 4 3
c0053 4 4
c0056 0 2
c0056 0 3
c0056 0 4
c0056 1 2
c0056 1 3
c0056 1 4
c0056 2 2
c0056 2 3
c0056 2 4
c0056 3 2
c0056 3 3
c0056 3 4
c0056 4 2
c0056 4 3
c0056 4 4
c0058 0 0
c0058 1 0
c0058 2 0
c0058 2 2
c0058 2 3
c0058 2 4
c0058 3 0
c0058 3 1
c0058 3 2
c0058 3 3
c0058 3 4
c0061 0 0
c0061 1 0
c0061 3 0
c0061 4 0
c0061 4 1
c0061 4 2
c0061 4 3
c0061 4 4
c0062 0 0
c0062 0 1
c0062 1 0
c0062 4 0
c0062 4 1
c0062 4 2
c0062 4 3
c0062 4 4
c0069 1 2
c0069 1 3
c0069 1 4
c0069 4 0
c0069 4 1
c0069 4 2
c0069 4 3
c0069 4 4
c0072 0 0
c0072 0 1
c0072 0 2
c0072 0 3
c0072 0 4
c0072 4 0
c0072 4 1
c0072 4 2
c0072 4 3
c0072 4 4
c0088 0 0
c0088 0 2
c0088 1 2
c0088 2 2
c0088 3 2
c0088 3 4
c0088 4 2
c0088 4 4
c0095 3 0
c0095 3 1
c0095 3 2
c0095 3 3
c0095 3 4
c0095 4 0
c0095 4 1
c0095 4 2
c0095 4 3
c0095 4 4
c0103 1 4
c0103 2 4
c0103 3 4
c0103 4 0
c0103 4 1
c0103 4 2
c0103 4 3
c0103 4 4
c0110 0 0
c0110 1 0
c0110 2 0
c0110 2 2
c0110 2 3
c0110 2 4
c0110 3 0
c0110 3 1
c0110 3 2
c0110 3 3
c0110 3 4
c0113 4 0
c0113 4 1
c0113 4 2
c0113 4 3
c0113 4 4
c0115 1 2
c0115 1 3
c0115 1 4
c0115 2 2
c0115 2 3
c0115 2 4
c0118 1 0
c0118 1 1
c0118 1 2
c0118 1 3
c0118 1 4
c0118 4 2
c0118 4 3
c0118 4 4
c0129 3 2
c0129 4 2
c0129 4 4
c0131 2 0
c0131 2 1
c0131 2 2
c0131 2 3
c0131 2 4
c0131 3 2
c0131 4 2
c0131 4 4
c0132 0 2
c0132 1 2
c0132 1 4
c0132 3 2
c0132 3 3
c0132 3 4
c0132 4 0
c0132 4 1
c0132 4 2
c0132 4 3
c0132 4 4
c0133 0 2
c0133 1 2
c0133 1 4
c0133 2 0
c0133 2 1
c0133 2 2
c0133 2 3
c0133 2 4
c0133 3 1
c0133 3 2
c0133 3 3
c0152 0 0
c0152 0 1
c0152 0 2
c0152 3 2
c0152 4 0
c0152 4 1
c0152 4 2
c0152 4 3
c0152 4 4
c0153 0 2
c0153 1 2
c0153 1 4
c0153 2 2
c0153 2 3
c0153 2 4
c0153 3 2
c0153 4 2
c0162 1 0
c0162 1 1
c0162 1 2
c0178 0 0
c0178 0 2
c0178 0 3
c0178 0 4
c0178 1 2
c0178 2 2
c0178 4 2
c0191 0 0
c0191 0 1
c0191 4 0
c0191 4 1
c0191 4 2
c0191 4 3
c0191 4 4
c0193 1 0
c0193 2 0
c0193 2 1
c0193 2 2
c0193 2 3
c0193 2 4
c0193 3 3
c0193 3 4
c0195 0 2
c0195 0 3
c0195 0 4
c0195 1 2
c0195 1 3
c0195 1 4
c0195 2 2
c0195 2 3
c0195 2 4
c0195 3 2
c0195 3 3
c0195 3 4
c0195 4 2
c0195 4 3
c0195 4 4
c0203 0 0
c0203 0 1
c0203 0 2
c0203 4 0
c0203 4 1
c0203 4 2
c0203 4 3
c0203 4 4
c0211 0 2
c0211 0 3
c0211 1 2
c0211 1 3
c0211 2 2
c0211 3 2
c0211 3 3
c0211 4 2
c0213 0 0
c0213 0 1
c0213 0 2
c0213 0 3
c0213 0 4
c0213 4 3
c0213 4 4
c0219 4 4
c0230 0 0
c0230 0 2
c0230 1 2
c0230 2 2
c0230 3 2
c0230 4 2
c0230 4 3
c0230 4 4
c0232 0 2
c0232 1 2
c0232 2 2
c0232 3 2
c0232 4 2
c0238 0 2
c0238 0 3
c0238 1 2
c0238 1 3
c0238 2 2
c0238 2 3
c0238 3 2
c0238 3 3
c0238 4 2
c0238 4 3
c0252 0 0
c0252 1 0
c0252 2 0
c0252 2 2
c0252 2 3
c0252 2 4
c0252 3 0
c0252 4 0
c0252 4 4
c0253 0 0
c0253 0 1
c0253 0 2
c0253 4 0
c0253 4 1
c0253 4 2
c0253 4 3
c0253 4 4
c0257 0 0
c0257 0 1
c0257 0 2
c0257 0 3
c0257 0 4
c0257 4 0
c0257 4 1
c0257 4 2
c0257 4 3
c0257 4 4
c0279 0 4
c0279 1 4
c0279 2 4
c0279 3 4
c0279 4 4
c0411 1 0
c0411 1 1
c0411 1 2
c0411 1 3
c0411 1 4
c0411 4 4
c0412 2 3
c0412 2 4
c0412 3 1
c0412 3 2
c0412 3 4
c0412 4 1
c0412 4 2
c0412 4 4
c0430 0 0
c0430 0 2
c0430 1 2
c0430 2 2
c0430 3 2
c0430 4 2
c0430 4 3
c0430 4 4
c0432 0 2
c0432 1 2
c0432 3 0
c0432 3 1
c0432 3 2
c0432 4 0
c0432 4 1
c0432 4 2
c0449 0 0
c0449 0 1
c0449 0 2
c0449 4 0
c0449 4 1
c0449 4 2
c0449 4 3
c0449 4 4
c0479 0 0
c0479 0 1
c0479 0 2
c0479 4 0
c0479 4 1
c0479 4 2
c0479 4 3
c0479 4 4
c0487 0 0
c0487 0 1
c0487 0 2
c0487 0 3
c0487 0 4
c0487 4 2
c0487 4 3
c0487 4 4
c0497 4 3
c0497 4 4
c0512 3 4
c0515 0 3
c0515 0 4
c0515 1 3
c0515 1 4
c0515 2 2
c0515 2 3
c0515 2 4
c0515 3 3
c0515 3 4
c0515 4 2
c0515 4 3
c0515 4 4
c0530 3 4
c0532 1 2
c0532 1 3
c0532 1 4
c0532 2 2
c0532 2 3
c0532 2 4
c0532 3 2
c0532 4 2
c0534 0 0
c0534 0 1
c0534 0 2
c0534 0 3
c0534 4 0
c0534 4 1
c0534 4 2
c0534 4 3
c0539 0 2
c0539 1 2
c0539 2 2
c0539 3 2
c0539 4 2
c0554 0 0
c0554 0 1
c0554 1 0
c0554 2 0
c0554 3 0
c0554 4 0
c0554 4 2
c0554 4 3
c0554 4 4
c0602 0 0
c0602 1 0
c0602 2 0
c0602 3 0
c0602 4 0
c0722 0 0
c0722 0 1
c0722 0 3
c0722 0 4
c0722 2 0
c0722 2 1
c0722 2 3
c0723 0 3
c0723 0 4
c0723 1 0
c0723 1 1
c0723 1 2
c0723 1 3
c0723 1 4
c0723 2 3
c0723 2 4
c0723 4 4
c0725 0 2
c0725 1 2
c0725 2 2
c0725 3 2
c0725 4 2
c0730 0 0
c0730 0 1
c0730 0 2
c0730 0 3
c0730 0 4
c0730 4 2
c0730 4 3
c0730 4 4
c0737 1 0
c0737 2 0
c0737 2 1
c0737 2 2
c0737 2 3
c0737 2 4
c0737 3 3
c0737 3 4
c0742 0 0
c0742 0 1
c0742 0 2
c0742 0 3
c0742 4 1
c0742 4 2
c0742 4 3
c0742 4 4
c0789 0 0
c0789 0 1
c0789 0 2
c0789 2 0
c0789 2 1
c0789 2 2
c0789 2 3
c0789 2 4
c0794 0 2
c0794 1 2
c0794 2 2
c0794 3 2
c0794 4 2
c0794 4 4
c0795 0 0
c0795 0 1
c0795 0 2
c0795 2 0
c0795 2 1
c0795 2 2
c0795 2 3
c0795 2 4
c0807 0 0
c0807 0 4
c0807 1 0
c0807 1 4
c0807 2 0
c0807 2 4
c0807 3 0
c0807 4 0
c0808 0 0
c0808 0 2
c0808 1 2
c0808 2 2
c0808 3 2
c0808 4 0
c0808 4 2
c0808 4 4
c0847 0 0
c0847 0 1
c0847 0 2
c0847 0 3
c0847 0 4
c0847 1 0
c0847 1 1
c0847 1 2
c0847 1 4
c0849 2 0
c0849 2 1
c0849 2 2
c0849 2 3
c0849 2 4
c0849 3 0
c0849 3 1
c0849 3 2
c0849 3 3
c0849 3 4
c0849 4 2
c0849 4 4
c0862 0 0
c0862 0 1
c0862 0 2
c0862 0 3
c0862 0 4
c0862 1 0
c0862 1 1
c0862 1 2
c0897 0 2
c0897 1 2
c0897 4 0
c0936 0 0
c0936 0 1
c0936 0 3
c0936 0 4
c0936 2 0
c0936 2 1
c0936 2 3
c0936 2 4
c1022 0 0
c1022 0 1
c1022 1 0
c1022 4 0
c1022 4 1
c1022 4 2
c1022 4 3
c1022 4 4
c0998 0 0
c0998 0 1
c0998 0 2
c0998 0 3
c0998 0 4
c0998 4 2
c0998 4 3
c0998 4 4
c1041 0 0
c1041 0 1
c1041 0 2
c1041 1 0
c1041 1 1
c1041 1 2
c1041 1 4
c1041 2 0
c1041 2 1
c1041 2 2
c1041 3 0
c1041 3 1
c1041 3 2
c1041 4 0
c1041 4 1
c1041 4 2
c1053 0 0
c1053 0 1
c1053 0 2
c1053 0 3
c1053 0 4
c1053 3 0
c1053 3 1
c1053 3 2
c1053 3 3
c1053 3 4
c1053 4 0
c1053 4 1
c1053 4 2
c1053 4 3
c1053 4 4
c1065 0 0
c1065 0 1
c1065 0 2
c1065 3 2
c1065 4 0
c1065 4 1
c1065 4 2
c1065 4 3
c1065 4 4
c1069 4 3
c1069 4 4
c1072 0 2
c1072 1 2
c1072 1 4
c1074 0 0
c1074 0 2
c1074 1 2
c1074 2 0
c1074 2 2
c1074 3 2
c1074 4 0
c1074 4 2

END.
